
Gurobi 13.0.2 (win64) logging started Thu Jul 23 06:39:56 2026

Set parameter LogFile to value "E:\codes\ExactEBRP\results\gf_cplex_equivalent_gurobi_replica_round28\runs\stage2__moderate_seed5301__c3_replica__300s\external\native_logs\R.0.0.1.0.1.1.1.0.0.0_terminal_mip.gurobi.log"
Gurobi Optimizer version 13.0.2 build v13.0.2rc1 (win64 - Windows 10.0 (19045.2))

CPU model: 12th Gen Intel(R) Core(TM) i7-12700KF, instruction set [SSE2|AVX|AVX2]
Thread count: 12 physical cores, 20 logical processors, using up to 1 threads

Non-default parameters:
TimeLimit  1.0815589609999998e+02
MIPGap  0
MIPGapAbs  0
LogToConsole  0
Threads  1

Optimize a model with 11944 rows, 3386 columns and 67436 nonzeros (Min)
Model fingerprint: 0x516e4f53
Model has 21 linear objective coefficients
Variable types: 1690 continuous, 1696 integer (1496 binary)
Coefficient statistics:
  Matrix range     [9e-03, 1e+04]
  Objective range  [9e-03, 1e+00]
  Bounds range     [3e-02, 2e+02]
  RHS range        [3e-02, 5e+04]

Presolve removed 970 rows and 117 columns
Presolve time: 0.25s
Presolved: 10974 rows, 3269 columns, 76033 nonzeros
Variable types: 1625 continuous, 1644 integer (1460 binary)

Root relaxation: objective 7.992754e-02, 4672 iterations, 0.34 seconds (0.99 work units)

    Nodes    |    Current Node    |     Objective Bounds      |     Work
 Expl Unexpl |  Obj  Depth IntInf | Incumbent    BestBd   Gap | It/Node Time

     0     0    0.07993    0  262          -    0.07993      -     -    0s
     0     0 infeasible    0               - infeasible      -     -    1s

Explored 1 nodes (6666 simplex iterations) in 1.08 seconds (2.56 work units)
Thread count was 1 (of 20 available processors)

Solution count 0

Model is infeasible
Best objective -, best bound -, gap -

User-callback calls 849, time in user-callback 0.00 sec
